9
1 2
2 1
3 5
4 4
5 4
6 3
7 2
8 9
22
0 1 12
1 0 12
0 2 76
2 0 76
0 3 55
3 0 55
0 4 5
4 0 5
0 5 4
5 0 4
0 6 12
6 0 12
0 7 28
7 0 28
0 8 30
8 0 30
2 3 1
2 4 21
2 8 44
4 8 11
5 7 80
5 8 47
